gen	cost
1	1449
2	1444
3	1422
4	1409
5	1389
6	1378
7	1356
8	1342
9	1333
10	1330
11	1321
12	1318
13	1299
14	1292
15	1278
16	1271
17	1266
18	1260
19	1259
20	1245
21	1241
22	1240
23	1236
24	1233
25	1224
26	1221
27	1221
28	1217
29	1212
30	1209
31	1197
32	1196
33	1191
34	1191
35	1185
36	1183
37	1182
38	1178
39	1169
40	1163
41	1160
42	1157
43	1151
44	1147
45	1142
46	1140
47	1140
48	1137
49	1133
50	1126

